148 147 176 126 167 137 86 107 23 142 178 104 151 2 8 42 37 45 54 4 186 48 196 184 145 129 199 91 60 49 97 140 38 163 194 189 0 121 30 51 183 43 18 15 102 188 162 150 69 50 84 109 114 135 138 70 16 195 33 112 116 133 156 35 171 92 181 57 46 88 5 146 75 105 192 1 168 130 76 7 111 179 93 74 19 187 161 127 71 28 62 68 103 182 119 143 36 22 115 123 9 120 56 73 177 10 47 158 64 106 20 40 67 44 159 113 136 172 124 165 170 26 17 134 41 13 153 3 11 174 24 80 169 180 87 65 128 31 77 32 6 185 34 90 52 89 39 95 198 166 131 193 154 27 122 85 197 110 164 59 125 25 117 98 82 175 132 21 63 173 58 72 29 55 79 83 14 66 139 191 78 100 190 152 99 108 157 149 118 53 61 160 12 141 81 144 101 155 94 96 

